20
4 0 2
4 2 2
5 1 3
5 4 2
6 0 3
6 1 1
6 2 3
6 5 3
7 2 5
7 4 3
7 5 4
7 6 3
8 0 4
8 1 3
8 2 5
8 3 1
8 4 4
8 7 2
9 1 3
9 6 3
9 8 2
10 0 4
10 1 4
10 2 4
10 5 2
10 7 2
11 0 4
11 1 1
11 3 3
11 4 5
11 8 2
11 10 3
12 0 3
12 1 4
12 3 4
12 5 3
12 8 1
12 9 2
12 10 1
13 0 3
13 1 5
13 2 1
13 6 5
13 12 5
14 5 5
14 6 1
14 10 5
14 12 1
14 13 4
15 0 1
15 1 3
15 2 2
15 3 5
15 4 1
15 9 2
15 10 5
15 11 5
15 14 3
16 4 2
16 6 5
16 7 5
16 10 1
16 11 4
16 14 4
16 15 4
17 4 3
17 8 1
17 9 1
17 10 5
17 11 2
17 13 4
17 15 1
17 16 5
18 0 2
18 2 1
18 3 5
18 4 1
18 5 2
18 6 3
18 7 4
18 9 5
18 11 2
18 16 5
19 0 3
19 1 2
19 4 4
19 6 4
19 7 5
19 13 3
19 14 3
19 17 4
